% File represents an instance of a Composite Structure problem to be solved by a CP framework
% Created on 2025-03-25 14:05:14.937
T = 60;
n = 25;
m = 40;
edges = [(1, 2),
(7, 6),
(12, 11),
(17, 16),
(21, 22),
(3, 2),
(7, 8),
(13, 12),
(18, 17),
(23, 22),
(3, 4),
(9, 8),
(14, 13),
(18, 19),
(23, 24),
(4, 5),
(9, 10),
(14, 15),
(19, 20),
(24, 25),
(1, 6),
(6, 11),
(16, 11),
(21, 16),
(7, 2),
(7, 12),
(12, 17),
(22, 17),
(8, 3),
(8, 13),
(18, 13),
(18, 23),
(9, 4),
(14, 9),
(19, 14),
(24, 19),
(10, 5),
(10, 15),
(15, 20),
(20, 25)];
counts = [|3, 24, 28, 5,
|2, 22, 25, 3,
|2, 22, 26, 3,
|2, 22, 26, 2,
|2, 21, 19, 2,
|2, 24, 20, 4,
|2, 24, 30, 4,
|2, 23, 26, 3,
|2, 24, 26, 3,
|2, 24, 25, 3,
|2, 18, 19, 2,
|2, 22, 25, 2,
|2, 22, 26, 3,
|2, 24, 26, 4,
|2, 24, 25, 2,
|2, 22, 22, 2,
|2, 22, 24, 2,
|2, 24, 28, 6,
|2, 24, 26, 5,
|2, 23, 25, 2,
|3, 22, 28, 5,
|2, 22, 27, 3,
|2, 24, 27, 6,
|2, 24, 26, 6,
|2, 22, 25, 2|];
